c Generated map
c Size: 15 * 15, weights in range: 1 to 10, walls: True, with ratio 0.05
c dim 1 of 4
c
p sp 225 378
c graph contains 225 nodes and 378 arcs
c
a 1 16 10
a 16 1 10
a 1 2 4
a 2 1 4
a 2 17 6
a 17 2 6
a 2 3 7
a 3 2 7
a 3 18 5
a 18 3 5
a 3 4 3
a 4 3 3
a 4 19 8
a 19 4 8
a 4 5 8
a 5 4 8
a 5 20 1
a 20 5 1
a 5 6 4
a 6 5 4
a 6 21 5
a 21 6 5
a 6 7 5
a 7 6 5
a 7 8 1
a 8 7 1
a 8 23 2
a 23 8 2
a 8 9 6
a 9 8 6
a 9 24 6
a 24 9 6
a 9 10 4
a 10 9 4
a 10 11 7
a 11 10 7
a 11 26 7
a 26 11 7
a 11 12 6
a 12 11 6
a 12 27 7
a 27 12 7
a 12 13 2
a 13 12 2
a 15 30 5
a 30 15 5
a 16 31 6
a 31 16 6
a 16 17 6
a 17 16 6
a 17 32 3
a 32 17 3
a 17 18 5
a 18 17 5
a 18 33 9
a 33 18 9
a 18 19 1
a 19 18 1
a 19 34 9
a 34 19 9
a 19 20 10
a 20 19 10
a 20 35 6
a 35 20 6
a 20 21 5
a 21 20 5
a 21 36 7
a 36 21 7
a 23 38 10
a 38 23 10
a 23 24 2
a 24 23 2
a 24 39 6
a 39 24 6
a 26 41 7
a 41 26 7
a 26 27 10
a 27 26 10
a 27 42 9
a 42 27 9
a 29 44 5
a 44 29 5
a 29 30 6
a 30 29 6
a 30 45 1
a 45 30 1
a 31 46 5
a 46 31 5
a 31 32 7
a 32 31 7
a 32 47 7
a 47 32 7
a 32 33 5
a 33 32 5
a 33 48 9
a 48 33 9
a 33 34 3
a 34 33 3
a 34 49 8
a 49 34 8
a 34 35 2
a 35 34 2
a 35 50 3
a 50 35 3
a 35 36 2
a 36 35 2
a 36 51 9
a 51 36 9
a 36 37 8
a 37 36 8
a 37 52 8
a 52 37 8
a 37 38 2
a 38 37 2
a 38 53 3
a 53 38 3
a 38 39 7
a 39 38 7
a 39 54 9
a 54 39 9
a 39 40 3
a 40 39 3
a 40 55 3
a 55 40 3
a 40 41 6
a 41 40 6
a 41 56 8
a 56 41 8
a 41 42 2
a 42 41 2
a 42 57 7
a 57 42 7
a 42 43 6
a 43 42 6
a 43 58 6
a 58 43 6
a 43 44 10
a 44 43 10
a 44 59 10
a 59 44 10
a 44 45 6
a 45 44 6
a 45 60 1
a 60 45 1
a 46 61 3
a 61 46 3
a 46 47 8
a 47 46 8
a 47 62 7
a 62 47 7
a 47 48 8
a 48 47 8
a 48 63 2
a 63 48 2
a 48 49 7
a 49 48 7
a 49 64 6
a 64 49 6
a 49 50 4
a 50 49 4
a 50 51 7
a 51 50 7
a 51 66 9
a 66 51 9
a 51 52 8
a 52 51 8
a 52 67 9
a 67 52 9
a 52 53 6
a 53 52 6
a 53 68 4
a 68 53 4
a 53 54 2
a 54 53 2
a 54 69 8
a 69 54 8
a 54 55 5
a 55 54 5
a 55 70 6
a 70 55 6
a 55 56 9
a 56 55 9
a 56 71 3
a 71 56 3
a 56 57 3
a 57 56 3
a 57 72 5
a 72 57 5
a 57 58 2
a 58 57 2
a 58 73 5
a 73 58 5
a 58 59 6
a 59 58 6
a 59 74 10
a 74 59 10
a 59 60 2
a 60 59 2
a 60 75 2
a 75 60 2
a 61 76 8
a 76 61 8
a 61 62 7
a 62 61 7
a 62 77 7
a 77 62 7
a 62 63 3
a 63 62 3
a 63 78 1
a 78 63 1
a 63 64 4
a 64 63 4
a 64 79 7
a 79 64 7
a 66 81 8
a 81 66 8
a 66 67 2
a 67 66 2
a 67 82 5
a 82 67 5
a 67 68 8
a 68 67 8
a 68 83 7
a 83 68 7
a 68 69 5
a 69 68 5
a 69 84 7
a 84 69 7
a 69 70 1
a 70 69 1
a 70 85 6
a 85 70 6
a 70 71 5
a 71 70 5
a 71 86 1
a 86 71 1
a 71 72 4
a 72 71 4
a 72 87 8
a 87 72 8
a 72 73 7
a 73 72 7
a 73 88 3
a 88 73 3
a 73 74 8
a 74 73 8
a 74 89 4
a 89 74 4
a 74 75 8
a 75 74 8
a 75 90 8
a 90 75 8
a 76 91 1
a 91 76 1
a 76 77 1
a 77 76 1
a 77 92 10
a 92 77 10
a 77 78 8
a 78 77 8
a 78 93 1
a 93 78 1
a 78 79 3
a 79 78 3
a 79 94 3
a 94 79 3
a 79 80 4
a 80 79 4
a 80 95 5
a 95 80 5
a 80 81 5
a 81 80 5
a 81 96 1
a 96 81 1
a 81 82 9
a 82 81 9
a 82 97 3
a 97 82 3
a 82 83 1
a 83 82 1
a 83 98 5
a 98 83 5
a 83 84 9
a 84 83 9
a 84 99 10
a 99 84 10
a 84 85 4
a 85 84 4
a 85 100 3
a 100 85 3
a 85 86 1
a 86 85 1
a 86 101 3
a 101 86 3
a 86 87 4
a 87 86 4
a 87 102 3
a 102 87 3
a 87 88 4
a 88 87 4
a 88 89 1
a 89 88 1
a 89 104 6
a 104 89 6
a 89 90 7
a 90 89 7
a 90 105 6
a 105 90 6
a 91 106 6
a 106 91 6
a 91 92 7
a 92 91 7
a 92 107 2
a 107 92 2
a 92 93 8
a 93 92 8
a 93 108 9
a 108 93 9
a 93 94 2
a 94 93 2
a 94 109 6
a 109 94 6
a 94 95 7
a 95 94 7
a 95 110 4
a 110 95 4
a 95 96 6
a 96 95 6
a 96 111 2
a 111 96 2
a 96 97 1
a 97 96 1
a 97 112 5
a 112 97 5
a 97 98 10
a 98 97 10
a 98 113 1
a 113 98 1
a 98 99 2
a 99 98 2
a 99 114 10
a 114 99 10
a 99 100 10
a 100 99 10
a 100 115 7
a 115 100 7
a 100 101 2
a 101 100 2
a 101 116 8
a 116 101 8
a 101 102 4
a 102 101 4
a 102 117 9
a 117 102 9
a 104 119 9
a 119 104 9
a 104 105 1
a 105 104 1
a 105 120 2
a 120 105 2
a 106 121 10
a 121 106 10
a 106 107 5
a 107 106 5
a 107 122 8
a 122 107 8
a 107 108 8
a 108 107 8
a 108 109 7
a 109 108 7
a 109 124 9
a 124 109 9
a 109 110 4
a 110 109 4
a 110 111 2
a 111 110 2
a 111 126 9
a 126 111 9
a 111 112 4
a 112 111 4
a 112 127 10
a 127 112 10
a 112 113 1
a 113 112 1
a 113 128 6
a 128 113 6
a 113 114 9
a 114 113 9
a 114 129 6
a 129 114 6
a 114 115 6
a 115 114 6
a 115 130 3
a 130 115 3
a 115 116 10
a 116 115 10
a 116 131 8
a 131 116 8
a 116 117 8
a 117 116 8
a 117 132 10
a 132 117 10
a 117 118 7
a 118 117 7
a 118 133 8
a 133 118 8
a 118 119 6
a 119 118 6
a 119 134 5
a 134 119 5
a 119 120 2
a 120 119 2
a 120 135 2
a 135 120 2
a 121 136 2
a 136 121 2
a 121 122 3
a 122 121 3
a 122 137 10
a 137 122 10
a 124 139 2
a 139 124 2
a 126 141 2
a 141 126 2
a 126 127 10
a 127 126 10
a 127 142 7
a 142 127 7
a 127 128 2
a 128 127 2
a 128 143 7
a 143 128 7
a 128 129 8
a 129 128 8
a 129 130 9
a 130 129 9
a 130 145 7
a 145 130 7
a 130 131 5
a 131 130 5
a 131 146 10
a 146 131 10
a 131 132 7
a 132 131 7
a 132 147 3
a 147 132 3
a 132 133 10
a 133 132 10
a 133 148 1
a 148 133 1
a 133 134 9
a 134 133 9
a 134 149 3
a 149 134 3
a 134 135 10
a 135 134 10
a 135 150 10
a 150 135 10
a 136 151 10
a 151 136 10
a 136 137 5
a 137 136 5
a 137 152 1
a 152 137 1
a 137 138 1
a 138 137 1
a 138 153 1
a 153 138 1
a 138 139 3
a 139 138 3
a 139 154 2
a 154 139 2
a 139 140 7
a 140 139 7
a 140 155 7
a 155 140 7
a 140 141 5
a 141 140 5
a 141 156 10
a 156 141 10
a 141 142 5
a 142 141 5
a 142 157 7
a 157 142 7
a 142 143 5
a 143 142 5
a 143 158 4
a 158 143 4
a 145 160 1
a 160 145 1
a 145 146 8
a 146 145 8
a 146 161 1
a 161 146 1
a 146 147 6
a 147 146 6
a 147 162 5
a 162 147 5
a 147 148 10
a 148 147 10
a 148 163 1
a 163 148 1
a 148 149 7
a 149 148 7
a 149 164 2
a 164 149 2
a 149 150 5
a 150 149 5
a 150 165 10
a 165 150 10
a 151 166 10
a 166 151 10
a 151 152 1
a 152 151 1
a 152 167 4
a 167 152 4
a 152 153 2
a 153 152 2
a 153 168 4
a 168 153 4
a 153 154 1
a 154 153 1
a 154 169 6
a 169 154 6
a 154 155 4
a 155 154 4
a 155 170 7
a 170 155 7
a 155 156 4
a 156 155 4
a 156 171 4
a 171 156 4
a 156 157 8
a 157 156 8
a 157 172 1
a 172 157 1
a 157 158 10
a 158 157 10
a 158 173 6
a 173 158 6
a 158 159 3
a 159 158 3
a 159 174 7
a 174 159 7
a 159 160 5
a 160 159 5
a 160 175 5
a 175 160 5
a 160 161 8
a 161 160 8
a 161 176 1
a 176 161 1
a 161 162 2
a 162 161 2
a 162 177 3
a 177 162 3
a 162 163 6
a 163 162 6
a 163 178 2
a 178 163 2
a 163 164 6
a 164 163 6
a 164 179 9
a 179 164 9
a 164 165 1
a 165 164 1
a 165 180 4
a 180 165 4
a 166 181 1
a 181 166 1
a 166 167 6
a 167 166 6
a 167 168 3
a 168 167 3
a 168 183 2
a 183 168 2
a 168 169 9
a 169 168 9
a 169 184 7
a 184 169 7
a 169 170 9
a 170 169 9
a 170 185 10
a 185 170 10
a 170 171 2
a 171 170 2
a 171 186 5
a 186 171 5
a 171 172 1
a 172 171 1
a 172 187 8
a 187 172 8
a 172 173 2
a 173 172 2
a 173 188 7
a 188 173 7
a 173 174 4
a 174 173 4
a 174 189 9
a 189 174 9
a 174 175 4
a 175 174 4
a 175 190 6
a 190 175 6
a 175 176 1
a 176 175 1
a 176 191 10
a 191 176 10
a 176 177 1
a 177 176 1
a 177 192 8
a 192 177 8
a 177 178 3
a 178 177 3
a 178 193 6
a 193 178 6
a 178 179 1
a 179 178 1
a 179 194 4
a 194 179 4
a 179 180 9
a 180 179 9
a 180 195 3
a 195 180 3
a 181 196 1
a 196 181 1
a 183 198 1
a 198 183 1
a 183 184 7
a 184 183 7
a 184 199 2
a 199 184 2
a 184 185 1
a 185 184 1
a 185 200 4
a 200 185 4
a 185 186 6
a 186 185 6
a 186 201 8
a 201 186 8
a 186 187 9
a 187 186 9
a 187 202 9
a 202 187 9
a 187 188 4
a 188 187 4
a 188 203 3
a 203 188 3
a 188 189 8
a 189 188 8
a 189 204 5
a 204 189 5
a 189 190 8
a 190 189 8
a 190 205 8
a 205 190 8
a 190 191 3
a 191 190 3
a 191 206 3
a 206 191 3
a 191 192 2
a 192 191 2
a 192 207 3
a 207 192 3
a 192 193 7
a 193 192 7
a 193 208 7
a 208 193 7
a 193 194 3
a 194 193 3
a 194 209 2
a 209 194 2
a 194 195 3
a 195 194 3
a 195 210 1
a 210 195 1
a 196 211 4
a 211 196 4
a 196 197 1
a 197 196 1
a 197 198 3
a 198 197 3
a 198 213 9
a 213 198 9
a 198 199 5
a 199 198 5
a 199 214 7
a 214 199 7
a 199 200 1
a 200 199 1
a 200 215 4
a 215 200 4
a 200 201 7
a 201 200 7
a 201 216 8
a 216 201 8
a 201 202 8
a 202 201 8
a 202 217 5
a 217 202 5
a 202 203 1
a 203 202 1
a 203 218 7
a 218 203 7
a 203 204 6
a 204 203 6
a 204 219 2
a 219 204 2
a 204 205 2
a 205 204 2
a 205 220 4
a 220 205 4
a 205 206 4
a 206 205 4
a 206 221 1
a 221 206 1
a 206 207 5
a 207 206 5
a 207 222 10
a 222 207 10
a 207 208 6
a 208 207 6
a 208 223 1
a 223 208 1
a 208 209 9
a 209 208 9
a 209 224 1
a 224 209 1
a 209 210 10
a 210 209 10
a 210 225 6
a 225 210 6
a 213 214 10
a 214 213 10
a 214 215 8
a 215 214 8
a 215 216 6
a 216 215 6
a 216 217 3
a 217 216 3
a 217 218 2
a 218 217 2
a 218 219 10
a 219 218 10
a 219 220 8
a 220 219 8
a 220 221 10
a 221 220 10
a 221 222 8
a 222 221 8
a 222 223 3
a 223 222 3
a 223 224 9
a 224 223 9
a 224 225 7
a 225 224 7
